language ESSENCE' 1.0
letting values be [[2, 1, 0, 3, 4, 9, 8, 7, 5], [0, 0, 8, 2, 5, 6, 0, 9, 4], [4, 0, 0, 0, 0, 0, 6, 0, 2], [0, 8, 5, 0, 1, 0, 7, 0, 9], [1, 6, 0, 7, 0, 0, 3, 2, 8], [0, 0, 2, 8, 6, 3, 0, 0, 0], [0, 4, 0, 0, 0, 1, 0, 0, 0], [6, 2, 1, 0, 0, 8, 5, 0, 0], [8, 9, 7, 5, 3, 0, 2, 1, 0]]